Version identifier: 22.1.1.0 | 2022-11-28 | 9160aff4d
CPXPARAM_ClockType                               1
CPXPARAM_Read_DataCheck                          1
CPXPARAM_Threads                                 1
CPXPARAM_TimeLimit                               7200
CPXPARAM_MIP_Tolerances_AbsMIPGap                0
CPXPARAM_MIP_Tolerances_MIPGap                   0
CPXPARAM_MIP_Tolerances_Integrality              0
Found incumbent of value 0.000000 after 0.00 sec. (0.62 ticks)
Tried aggregator 1 time.
MIP Presolve eliminated 857 rows and 4 columns.
MIP Presolve modified 468 coefficients.
Reduced MIP has 3964 rows, 2246 columns, and 13406 nonzeros.
Reduced MIP has 2246 binaries, 0 generals, 0 SOSs, and 0 indicators.
Presolve time = 0.02 sec. (9.34 ticks)
Probing time = 0.00 sec. (2.79 ticks)
Tried aggregator 1 time.
Detecting symmetries...
MIP Presolve eliminated 250 rows and 0 columns.
Reduced MIP has 3714 rows, 2246 columns, and 12656 nonzeros.
Reduced MIP has 2246 binaries, 0 generals, 0 SOSs, and 0 indicators.
Presolve time = 0.01 sec. (10.75 ticks)
Probing time = 0.00 sec. (2.60 ticks)
Clique table members: 7986.
MIP emphasis: balance optimality and feasibility.
MIP search method: dynamic search.
Parallel mode: none, using 1 thread.
Root relaxation solution time = 0.25 sec. (232.26 ticks)

        Nodes                                         Cuts/
   Node  Left     Objective  IInf  Best Integer    Best Bound    ItCnt     Gap

*     0+    0                            0.0000     3000.0000              --- 
      0     0      800.0000   782        0.0000      800.0000     1643     --- 
      0     0      800.0000   759        0.0000      Cuts: 35     1795     --- 
      0     0      800.0000   792        0.0000      Cuts: 87     2178     --- 
      0     0      800.0000   662        0.0000   ZeroHalf: 4     2400     --- 
      0     0      800.0000   750        0.0000     Cuts: 127     2626     --- 
Detecting symmetries...
      0     2      800.0000   703        0.0000      800.0000     2626     --- 
Elapsed time = 2.87 sec. (1809.72 ticks, tree = 0.01 MB, solutions = 1)
      1     3      800.0000   413        0.0000      800.0000     5220     --- 
      4     6      800.0000   520        0.0000      800.0000     7348     --- 
      6     8      800.0000   570        0.0000      800.0000    10523     --- 
     11    13      800.0000   559        0.0000      800.0000    12384     --- 
     15    17      800.0000   694        0.0000      800.0000    14895     --- 
     17    19      799.5000   432        0.0000      800.0000    18127     --- 
     19    21      796.0000   704        0.0000      800.0000    20185     --- 
     23    25      799.5000   791        0.0000      800.0000    21961     --- 
     26    26    infeasible              0.0000      800.0000    24597     --- 
     32    26      774.0000   581        0.0000      800.0000    30933     --- 
Elapsed time = 7.91 sec. (6082.30 ticks, tree = 0.15 MB, solutions = 1)
*    38    30      integral     0      754.0000      800.0000    33285    6.10%
     49    39      800.0000   518      754.0000      800.0000    35434    6.10%
     85    61    infeasible            754.0000      800.0000    41412    6.10%
    113    75      799.0000   537      754.0000      800.0000    46979    6.10%
    145    90      799.8182   504      754.0000      800.0000    52469    6.10%
    182   101      800.0000   292      754.0000      800.0000    58178    6.10%
    211   102      800.0000   333      754.0000      800.0000    63450    6.10%
    234    97        cutoff            754.0000      800.0000    69497    6.10%
    263   110    infeasible            754.0000      800.0000    74565    6.10%
    300   130        cutoff            754.0000      800.0000    80029    6.10%
    331   149      798.4000   489      754.0000      800.0000    85625    6.10%
Elapsed time = 20.20 sec. (15819.75 ticks, tree = 3.84 MB, solutions = 2)
    362   154    infeasible            754.0000      800.0000    91632    6.10%
    389   154    infeasible            754.0000      800.0000    98047    6.10%
    417   154    infeasible            754.0000      800.0000   104567    6.10%
    454   157        cutoff            754.0000      800.0000   111190    6.10%
    483   154    infeasible            754.0000      800.0000   117621    6.10%
    518   158        cutoff            754.0000      800.0000   124342    6.10%
    542   150    infeasible            754.0000      800.0000   130753    6.10%
    564   158      799.7143   529      754.0000      800.0000   136736    6.10%
    587   161        cutoff            754.0000      800.0000   143045    6.10%
    612   164      800.0000   300      754.0000      800.0000   149102    6.10%
Elapsed time = 32.58 sec. (25654.82 ticks, tree = 4.29 MB, solutions = 2)
    630   162      799.2500   486      754.0000      800.0000   155569    6.10%
    657   161      800.0000   284      754.0000      800.0000   161681    6.10%
    695   179      799.5714   542      754.0000      800.0000   168360    6.10%
    728   180        cutoff            754.0000      800.0000   175004    6.10%
    760   190    infeasible            754.0000      800.0000   181257    6.10%
    784   196      798.2406   506      754.0000      800.0000   187868    6.10%
    818   198        cutoff            754.0000      800.0000   194242    6.10%
    842   192    infeasible            754.0000      800.0000   201196    6.10%
    864   188      799.6667   448      754.0000      800.0000   207560    6.10%
    890   198      800.0000   319      754.0000      800.0000   214126    6.10%
Elapsed time = 44.73 sec. (35518.53 ticks, tree = 5.32 MB, solutions = 2)
    917   199    infeasible            754.0000      800.0000   220187    6.10%
    939   197      800.0000   311      754.0000      800.0000   226650    6.10%
    957   197    infeasible            754.0000      800.0000   233437    6.10%
    983   197      800.0000   334      754.0000      800.0000   239662    6.10%
   1011   203      799.6667   453      754.0000      800.0000   245975    6.10%
   1041   196      800.0000   500      754.0000      800.0000   252166    6.10%
   1069   200    infeasible            754.0000      800.0000   258253    6.10%
   1088   199      799.9091   512      754.0000      800.0000   264688    6.10%
   1108   203      798.4375   495      754.0000      800.0000   271740    6.10%
   1140   205    infeasible            754.0000      800.0000   277353    6.10%
Elapsed time = 56.95 sec. (45317.38 ticks, tree = 5.56 MB, solutions = 2)
   1167   206      800.0000   455      754.0000      800.0000   283732    6.10%
   1200   213      799.9688   491      754.0000      800.0000   289872    6.10%
   1226   207      799.9390   517      754.0000      800.0000   296762    6.10%
   1250   209      799.9091   507      754.0000      800.0000   302784    6.10%
   1272   211      799.6667   457      754.0000      800.0000   309334    6.10%
   1299   213      800.0000   296      754.0000      800.0000   315597    6.10%
   1322   212      799.9167   497      754.0000      800.0000   321809    6.10%
   1348   206    infeasible            754.0000      800.0000   328254    6.10%
   1375   205      800.0000   462      754.0000      800.0000   334084    6.10%
   1401   207      798.6000   489      754.0000      800.0000   340982    6.10%
Elapsed time = 69.02 sec. (55202.44 ticks, tree = 5.59 MB, solutions = 2)
   1440   216      800.0000   319      754.0000      800.0000   347235    6.10%
   1466   216      799.5714   516      754.0000      800.0000   353488    6.10%
   1516   226      799.8889   470      754.0000      800.0000   360065    6.10%
   1547   232    infeasible            754.0000      800.0000   366832    6.10%
   1577   230    infeasible            754.0000      800.0000   373146    6.10%
   1596   223    infeasible            754.0000      800.0000   379719    6.10%
   1615   216      799.9394   555      754.0000      800.0000   386348    6.10%
*  1620   209      integral     0      784.0000      800.0000   387842    2.04%
   1641   218      800.0000   420      784.0000      800.0000   392483    2.04%
*  1668   223      integral     0      786.0000      800.0000   397788    1.78%
   1670   224      794.0000   334      786.0000      800.0000   398788    1.78%
   1701   225      793.4211   446      786.0000      800.0000   405314    1.78%
Elapsed time = 81.03 sec. (65029.38 ticks, tree = 6.17 MB, solutions = 4)
   1725   227      800.0000   429      786.0000      800.0000   411465    1.78%
   1746   230        cutoff            786.0000      800.0000   418470    1.78%
   1786   256      799.7500   371      786.0000      800.0000   423681    1.78%
   1825   269      792.4286   461      786.0000      800.0000   430525    1.78%
   1855   279      798.9286   520      786.0000      800.0000   436737    1.78%
   1886   284      798.4000   506      786.0000      800.0000   443539    1.78%
   1914   282        cutoff            786.0000      800.0000   450522    1.78%
   1941   287      794.0000   370      786.0000      800.0000   457205    1.78%
   1976   291        cutoff            786.0000      800.0000   464100    1.78%
   1994   295      800.0000   385      786.0000      800.0000   470130    1.78%
Elapsed time = 93.07 sec. (74798.94 ticks, tree = 8.24 MB, solutions = 4)
*  2027   274      integral     0      792.0000      800.0000   474036    1.01%
   2045   278        cutoff            792.0000      800.0000   476566    1.01%
*  2049     1      integral     0      800.0000      800.0000   477760    0.00%

Clique cuts applied:  3
Cover cuts applied:  4
Implied bound cuts applied:  3
Zero-half cuts applied:  19
Gomory fractional cuts applied:  1

Root node processing (before b&c):
  Real time             =    2.86 sec. (1802.30 ticks)
Sequential b&c:
  Real time             =   91.75 sec. (74192.23 ticks)
                          ------------
Total (root+branch&cut) =   94.61 sec. (75994.53 ticks)
Solution is feasible.

---------------------
@@@ MIP_optimal
>>> Benchmark flat50-6.cnf k 5 OPT 800 TimeCost 95.26251816749573 TimeSolve 94.95941281318665 TimeRead 0.03202700614929199 TimeTrans 0.27107834815979004
